p cnf 100 20
x -1 2 -3 -4 7 -10 -11 12 16 -17 18 -19 -20 21 22 25 -28 -29 -30 -34 37 42 44 -47 48 -50 54 60 -62 65 -66 67 -68 70 71 -77 -78 -80 -82 85 86 87 90 -91 93 -96 97 -98 100 0
x -3 4 6 -8 -10 14 16 -17 -18 19 -21 22 -23 25 28 -29 -30 34 36 37 -38 40 -41 42 -43 -44 47 50 51 -52 -54 -55 58 -62 -64 66 -67 68 69 -70 -78 -79 -81 -82 83 84 86 87 88 89 -90 -91 -95 96 -98 99 0
x -2 3 7 -10 12 -15 16 18 19 -20 26 27 31 32 -33 -34 -35 36 37 -38 -39 -40 41 -42 44 -46 -47 -49 -50 -55 57 -58 -64 -65 68 -69 74 -75 76 -78 -80 82 -83 -84 88 -89 -93 -94 -95 -96 -99 100 0
x 2 -3 4 -6 -9 -10 12 -14 -20 22 -23 25 -26 -28 29 -30 39 40 -42 -45 50 51 -52 -53 55 -59 -61 63 -64 -65 -67 -69 72 -73 -80 85 86 91 -94 -95 -98 0
x -5 -6 8 9 -10 14 19 -20 21 -22 -23 -27 -29 31 33 35 36 -39 -40 -41 43 -44 -46 -47 -50 53 -55 57 58 59 60 61 62 -63 64 -65 -68 -70 -71 72 76 77 78 82 83 -84 85 91 92 -93 94 95 96 97 -100 0
x 4 7 -8 -13 -14 15 -16 18 20 22 -24 -25 -32 33 35 -36 -37 -38 39 40 -41 -42 -43 45 47 -49 -50 51 56 57 -60 61 -62 66 67 68 -72 -74 -76 77 -78 79 83 -84 86 -87 -90 -91 -96 99 -100 0
x -1 -2 3 -6 -7 8 11 14 15 -17 -19 21 22 -23 25 28 29 -31 32 34 -35 -38 39 44 -45 46 -47 -48 -51 -62 -64 66 -69 -71 72 76 77 -78 81 -82 83 -86 -87 88 89 -91 93 -94 -96 -97 99 -100 0
x -2 -3 -6 -8 -13 15 16 -18 20 22 23 -24 25 -26 -28 -30 37 47 48 -51 -55 56 62 -65 66 69 -72 -73 -75 76 -81 -82 83 -84 -85 -88 -91 92 -96 -97 -100 0
x -3 4 -6 10 -11 -14 15 19 -22 -26 -27 30 -33 39 41 43 -46 50 -51 -53 55 58 62 63 64 66 -68 -69 -70 -71 72 -73 74 -75 -76 77 -78 -79 80 82 -85 -86 -91 92 -97 -98 0
x 1 -3 -8 9 12 -13 14 -18 -21 22 25 26 27 -28 -29 31 -32 35 -36 41 -49 53 -55 -56 58 59 -60 62 63 65 -66 68 69 -70 -83 86 -88 -90 91 -94 95 98 0
x -1 3 -8 10 11 12 14 -19 -22 24 -25 -28 -29 30 -32 34 -35 37 38 40 -41 -42 -44 -45 -49 -51 -52 55 -58 59 -60 -61 62 63 -69 72 75 -77 -78 -79 80 81 83 -84 -86 88 89 93 -95 96 98 0
x 2 -3 4 -5 -7 8 -10 12 -16 18 24 -28 31 -32 33 35 -37 39 40 43 45 -47 49 -52 54 -55 -56 -57 60 61 62 -63 64 -66 -67 68 69 70 -71 75 76 77 -78 80 -83 -86 87 91 92 -93 95 -97 98 99 0
x -3 5 6 -9 -10 12 21 -25 -28 -30 -32 -33 -37 38 -39 40 -41 42 43 44 46 -50 51 -52 53 54 56 57 -60 61 -62 64 -67 -68 70 -73 74 75 76 -77 -78 -80 -85 -86 90 92 -93 94 97 99 -100 0
x -1 -2 3 4 5 8 -11 -12 17 19 21 23 -24 -26 28 30 -32 -33 34 -35 36 37 -38 -41 42 48 -49 50 51 -52 -54 55 56 62 -64 66 67 -68 -70 73 76 -79 -81 82 83 -85 89 -91 93 -94 -96 -97 98 -100 0
x 1 2 -3 -4 -6 -9 12 -13 -19 -26 28 -29 -34 -35 -38 40 -42 44 45 46 47 51 -52 -55 -58 60 63 -65 -71 72 -76 -81 -82 83 -84 -85 -87 90 92 93 94 -95 96 -98 -99 100 0
x -3 -4 -8 10 -11 -12 13 14 -16 19 20 -22 -24 -26 27 -31 -34 43 -45 -46 48 49 -50 -52 -53 54 -55 56 -57 60 62 63 -67 69 70 -72 -73 75 76 -77 -78 79 80 -84 88 91 94 -95 96 -97 98 100 0
x -3 4 -6 -9 -12 13 -16 18 19 -21 -23 25 -27 -30 33 37 48 51 52 56 57 59 -63 -65 -66 -67 68 69 70 72 73 -74 78 80 -83 84 -85 -88 -89 92 93 94 -96 97 98 99 0
x -3 5 8 -11 12 13 -14 15 17 22 -23 -24 25 -26 -27 -28 -29 30 -31 33 -36 37 38 -39 40 -41 -43 46 -49 -50 -52 -55 -56 58 -61 -62 63 68 70 -71 73 -76 79 -81 -82 -83 -84 -85 -86 -87 88 91 92 95 -97 -99 0
x -2 -9 11 12 13 14 -18 20 23 24 -27 28 31 35 37 40 -42 44 45 -46 47 -48 52 56 -58 -61 -65 -66 68 -69 -74 -75 77 78 80 81 83 -84 85 -89 -90 -91 93 94 -95 -96 98 -99 0
x 3 -5 12 13 -14 17 -18 19 20 21 22 -23 25 -26 -27 28 -29 -30 -32 -33 35 -37 -38 39 40 43 -45 46 -48 50 53 -60 64 70 -71 -72 -74 75 81 82 -85 -86 -94 96 97 100 0
g -30